n_potions = 66;
alchemy = [5, 4, 2, 3, 4, 5, 3, 3, 1, 5, 5, 1, 2, 5, 5, 2, 5, 5, 1, 3, 4, 3, 1, 1, 1, 5, 3, 4, 5, 1, 1, 3, 2, 2, 3, 5, 3, 2, 3, 5, 5, 2, 2, 5, 4, 5, 5, 5, 5, 5, 5, 1, 2, 2, 4, 2, 5, 3, 1, 5, 1, 1, 2, 4, 1, 2];
n_days = 12;
min_potions = 5;
max_potions = 7;
min_alchemists = 5;
max_alchemists = 35;
prereqs = [|7,1
|8,2
|8,6
|10,5
|11,5
|11,6
|12,7
|13,11
|14,3
|16,9
|17,10
|17,11
|18,10
|18,11
|19,8
|19,11
|20,9
|21,10
|23,17
|23,18
|24,19
|26,23
|30,9
|32,9
|33,27
|34,17
|35,9
|35,17
|37,20
|37,30
|37,35
|39,35
|41,9
|41,17
|41,18
|45,38
|46,37
|48,34
|48,35
|49,30
|49,32
|51,33
|54,50
|56,51
|57,39
|58,28
|61,55
|62,31
|63,48
|65,59
|];
